25417.68,51.39,56.59
25181.09,51.87,57.12
26212.3,49.83,54.88
27775.86,47.03,51.79
26037.89,50.16,55.24
26917.56,48.53,53.44
27653.99,47.23,52.02
26665.01,48.98,53.94
28241.38,46.25,50.93
25924.24,50.38,55.49
30529.16,42.79,47.12
32942.93,39.65,43.67
29220.69,44.7,49.23
24531.82,53.24,58.63
27190.41,48.04,52.9
26505.72,49.28,54.27
28441.11,45.93,50.58
26034.48,50.17,55.25
28316.42,46.13,50.8
29031.53,44.99,49.55
